
Gurobi 7.0.1 (win64) logging started 03/26/17 17:46:58

Changed value of parameter LogFile to ProvinceRunOutputs/log_prov13.log
   Prev: gurobi.log  Default: 
Optimize a model with 2964 rows, 101291 columns and 203016 nonzeros
Variable types: 0 continuous, 101291 integer (101291 binary)
Coefficient statistics:
  Matrix range     [1e+00, 1e+05]
  Objective range  [2e-01, 3e+02]
  Bounds range     [1e+00, 1e+00]
  RHS range        [1e+00, 6e+00]
Found heuristic solution: objective 336278
Presolve removed 601 rows and 10548 columns
Presolve time: 0.45s
Presolved: 2363 rows, 90743 columns, 181612 nonzeros

MIP start did not produce a new incumbent solution
MIP start violates constraint R0 by 649999.000000000

Variable types: 0 continuous, 90743 integer (90743 binary)

Root relaxation: objective 3.326224e+04, 2134 iterations, 0.03 seconds

    Nodes    |    Current Node    |     Objective Bounds      |     Work
 Expl Unexpl |  Obj  Depth IntInf | Incumbent    BestBd   Gap | It/Node Time

     0     0 33262.2439    0   28 336277.880 33262.2439  90.1%     -    0s
H    0     0                    41719.265427 33262.2439  20.3%     -    1s
H    0     0                    40858.155547 33262.2439  18.6%     -    1s
H    0     0                    38021.205359 33262.2439  12.5%     -    2s
     0     0 34380.1431    0  560 38021.2054 34380.1431  9.58%     -    2s
     0     0 36423.2911    0 1425 38021.2054 36423.2911  4.20%     -    3s
     0     0 37010.0222    0 2173 38021.2054 37010.0222  2.66%     -    4s
     0     0 37023.8701    0 2180 38021.2054 37023.8701  2.62%     -    4s
     0     0 37172.2930    0 2252 38021.2054 37172.2930  2.23%     -    5s
     0     0 37255.1100    0 2336 38021.2054 37255.1100  2.01%     -    5s
     0     0 37343.5675    0 2437 38021.2054 37343.5675  1.78%     -    5s
*    0     0               0    37395.907716 37395.9077  0.00%     -    7s

Explored 0 nodes (11946 simplex iterations) in 7.98 seconds
Thread count was 4 (of 4 available processors)

Solution count 5: 37395.9 38021.2 40858.2 ... 336278
Pool objective bound 37395.9

Optimal solution found (tolerance 1.00e-04)
Best objective 3.739590771643e+04, best bound 3.739590771643e+04, gap 0.0000%
Optimize a model with 3982 rows, 101291 columns and 206070 nonzeros
Variable types: 0 continuous, 101291 integer (101291 binary)
Coefficient statistics:
  Matrix range     [1e+00, 1e+05]
  Objective range  [2e-01, 3e+02]
  Bounds range     [1e+00, 1e+00]
  RHS range        [1e+00, 6e+00]
Found heuristic solution: objective 227779
Presolve removed 601 rows and 10548 columns
Presolve time: 0.44s
Presolved: 3381 rows, 90743 columns, 184666 nonzeros

MIP start did not produce a new incumbent solution
MIP start violates constraint R0 by 649999.000000000

Variable types: 0 continuous, 90743 integer (90743 binary)

Root relaxation: objective 3.339044e+04, 2380 iterations, 0.16 seconds

    Nodes    |    Current Node    |     Objective Bounds      |     Work
 Expl Unexpl |  Obj  Depth IntInf | Incumbent    BestBd   Gap | It/Node Time

     0     0 33390.4354    0  132 227779.451 33390.4354  85.3%     -    0s
H    0     0                    39995.936290 33390.4354  16.5%     -    1s
H    0     0                    39646.393458 33390.4354  15.8%     -    1s
H    0     0                    37842.826105 33390.4354  11.8%     -    3s
     0     0 36232.8432    0 1543 37842.8261 36232.8432  4.25%     -    3s
     0     0 37058.1988    0 2255 37842.8261 37058.1988  2.07%     -    5s
     0     0 37058.9342    0 2265 37842.8261 37058.9342  2.07%     -    5s
     0     0 37253.1429    0 2597 37842.8261 37253.1429  1.56%     -    7s
     0     0 37254.2574    0 2460 37842.8261 37254.2574  1.56%     -    8s
     0     0 37348.9385    0 2423 37842.8261 37348.9385  1.31%     -    8s
*    0     0               0    37395.907716 37395.9077  0.00%     -   10s

Explored 0 nodes (12270 simplex iterations) in 10.97 seconds
Thread count was 4 (of 4 available processors)

Solution count 5: 37395.9 37842.8 39646.4 ... 227779
Pool objective bound 37395.9

Optimal solution found (tolerance 1.00e-04)
Best objective 3.739590771643e+04, best bound 3.739590771643e+04, gap 0.0000%
Optimize a model with 4011 rows, 101291 columns and 206157 nonzeros
Variable types: 0 continuous, 101291 integer (101291 binary)
Coefficient statistics:
  Matrix range     [1e+00, 1e+05]
  Objective range  [2e-01, 3e+02]
  Bounds range     [1e+00, 1e+00]
  RHS range        [1e+00, 6e+00]
Found heuristic solution: objective 227779
Presolve removed 601 rows and 10548 columns
Presolve time: 0.43s
Presolved: 3410 rows, 90743 columns, 184753 nonzeros

MIP start did not produce a new incumbent solution
MIP start violates constraint R0 by 649999.000000000

Variable types: 0 continuous, 90743 integer (90743 binary)

Root relaxation: objective 3.348206e+04, 2405 iterations, 0.15 seconds

    Nodes    |    Current Node    |     Objective Bounds      |     Work
 Expl Unexpl |  Obj  Depth IntInf | Incumbent    BestBd   Gap | It/Node Time

     0     0 33482.0611    0  132 227779.451 33482.0611  85.3%     -    0s
H    0     0                    40194.655348 33482.0611  16.7%     -    1s
H    0     0                    39969.156155 33482.0611  16.2%     -    1s
H    0     0                    39350.371707 33482.0611  14.9%     -    4s
     0     0 36496.4055    0 1589 39350.3717 36496.4055  7.25%     -    4s
     0     0 36496.4075    0 1591 39350.3717 36496.4075  7.25%     -    5s
     0     0 37335.7659    0 2302 39350.3717 37335.7659  5.12%     -    6s
H    0     0                    37762.909176 37335.7659  1.13%     -    6s
     0     0 37335.9207    0 2307 37762.9092 37335.9207  1.13%     -    6s
     0     0 37536.2345    0 2792 37762.9092 37536.2345  0.60%     -    8s
*    0     0               0    37693.487617 37693.4876  0.00%     -   10s

Explored 0 nodes (11870 simplex iterations) in 10.66 seconds
Thread count was 4 (of 4 available processors)

Solution count 6: 37693.5 37762.9 39350.4 ... 227779
Pool objective bound 37693.5

Optimal solution found (tolerance 1.00e-04)
Best objective 3.769348761656e+04, best bound 3.769348761656e+04, gap 0.0000%
Optimize a model with 4019 rows, 101291 columns and 206181 nonzeros
Variable types: 0 continuous, 101291 integer (101291 binary)
Coefficient statistics:
  Matrix range     [1e+00, 1e+05]
  Objective range  [2e-01, 3e+02]
  Bounds range     [1e+00, 1e+00]
  RHS range        [1e+00, 6e+00]
Found heuristic solution: objective 227779
Presolve removed 601 rows and 10548 columns
Presolve time: 0.47s
Presolved: 3418 rows, 90743 columns, 184777 nonzeros

MIP start did not produce a new incumbent solution
MIP start violates constraint R0 by 649999.000000000

Variable types: 0 continuous, 90743 integer (90743 binary)

Root relaxation: objective 3.348206e+04, 2402 iterations, 0.18 seconds

    Nodes    |    Current Node    |     Objective Bounds      |     Work
 Expl Unexpl |  Obj  Depth IntInf | Incumbent    BestBd   Gap | It/Node Time

     0     0 33482.0611    0  132 227779.451 33482.0611  85.3%     -    0s
H    0     0                    40129.016002 33482.0611  16.6%     -    1s
H    0     0                    39966.893959 33482.0611  16.2%     -    1s
H    0     0                    39350.371707 33482.0611  14.9%     -    4s
     0     0 36488.2837    0 1591 39350.3717 36488.2837  7.27%     -    6s
     0     0 36488.2857    0 1593 39350.3717 36488.2857  7.27%     -    7s
     0     0 37335.6626    0 2304 39350.3717 37335.6626  5.12%     -    8s
H    0     0                    37716.408218 37335.6626  1.01%     -    9s
     0     0 37335.8173    0 2337 37716.4082 37335.8173  1.01%     -    9s
     0     0 37536.7865    0 2597 37716.4082 37536.7865  0.48%     -   11s
     0     0     cutoff    0      37716.4082 37716.4082  0.00%     -   14s

Explored 0 nodes (11936 simplex iterations) in 14.96 seconds
Thread count was 4 (of 4 available processors)

Solution count 5: 37716.4 39350.4 39966.9 ... 227779
Pool objective bound 37716.4

Optimal solution found (tolerance 1.00e-04)
Best objective 3.771640821771e+04, best bound 3.771640821771e+04, gap 0.0000%
Optimize a model with 4020 rows, 101291 columns and 206184 nonzeros
Variable types: 0 continuous, 101291 integer (101291 binary)
Coefficient statistics:
  Matrix range     [1e+00, 1e+05]
  Objective range  [2e-01, 3e+02]
  Bounds range     [1e+00, 1e+00]
  RHS range        [1e+00, 6e+00]
Found heuristic solution: objective 227779
Presolve removed 601 rows and 10548 columns
Presolve time: 0.47s
Presolved: 3419 rows, 90743 columns, 184780 nonzeros

MIP start did not produce a new incumbent solution
MIP start violates constraint R0 by 649999.000000000

Variable types: 0 continuous, 90743 integer (90743 binary)

Root relaxation: objective 3.348206e+04, 2402 iterations, 0.18 seconds

    Nodes    |    Current Node    |     Objective Bounds      |     Work
 Expl Unexpl |  Obj  Depth IntInf | Incumbent    BestBd   Gap | It/Node Time

     0     0 33482.0611    0  132 227779.451 33482.0611  85.3%     -    0s
H    0     0                    40129.016002 33482.0611  16.6%     -    1s
H    0     0                    39946.581173 33482.0611  16.2%     -    1s
H    0     0                    39350.371707 33482.0611  14.9%     -    4s
     0     0 36507.4292    0 1588 39350.3717 36507.4292  7.22%     -    5s
     0     0 36507.4312    0 1590 39350.3717 36507.4312  7.22%     -    5s
     0     0 37337.8779    0 2330 39350.3717 37337.8779  5.11%     -    7s
H    0     0                    38374.733127 37337.8779  2.70%     -    7s
H    0     0                    37761.940955 37337.8779  1.12%     -    7s
     0     0 37338.0469    0 2333 37761.9410 37338.0469  1.12%     -    7s
     0     0 37536.8217    0 2594 37761.9410 37536.8217  0.60%     -    9s
*    0     0               0    37718.670414 37718.6704  0.00%     -   11s

Explored 0 nodes (11972 simplex iterations) in 11.63 seconds
Thread count was 4 (of 4 available processors)

Solution count 7: 37718.7 37761.9 38374.7 ... 227779
Pool objective bound 37718.7

Optimal solution found (tolerance 1.00e-04)
Best objective 3.771867041390e+04, best bound 3.771867041390e+04, gap 0.0000%
